(set-option :print-success false)
(set-logic QF_UF)
(declare-sort x57 0)
(declare-sort x150 0)
(declare-fun x158 () x150)
(declare-fun x78 () x150)
(declare-fun x135 () x150)
(declare-fun x107 () x150)
(declare-fun x63 (x150 x150) x150)
(declare-fun x143 () x150)
(declare-fun x151 (x150 x150) x150)
(assert (let ((x142 (x63 x158 x158)) (x96 (x63 x158 x78)) (x71 (x63 x143 x78)) (x131 (x63 x135 x135)) (x79 (x63 x158 x107)) (x70 (x63 x158 x143)) (x118 (x63 x107 x107)) (x75 (x63 x135 x158)) (x60 (x63 x107 x78)) (x153 (x63 x143 x135)) (x12 (x63 x78 x158)) (x58 (x63 x78 x143)) (x125 (x63 x78 x135)) (x117 (x63 x107 x158)) (x1 (x63 x143 x158)) (x89 (x63 x135 x107)) (x31 (x63 x158 x135)) (x93 (x63 x107 x135)) (x139 (x63 x143 x107)) (x10 (x63 x135 x143)) (x24 (x63 x78 x78)) (x22 (x63 x143 x143)) (x18 (x63 x78 x107)) (x83 (x63 x135 x78)) (x133 (x63 x107 x143))) (and (and (and (and (and (not (= x71 x153)) (and (not (= x22 x1)) (and (and (not (= x1 x153)) (and (and (and (not (= x139 x1)) (not (= x153 x139))) (not (= x139 x71))) (not (= x139 x22)))) (not (= x1 x71))))) (not (= x153 x22))) (not (= x22 x71))) (and (and (and (not (= x10 x83)) (and (not (= x131 x10)) (and (and (and (not (= x83 x75)) (and (not (= x75 x131)) (and (not (= x10 x89)) (and (not (= x83 x89)) (and (not (= x89 x131)) (not (= x75 x89))))))) (not (= x10 x75))) (not (= x83 x131))))) (and (and (not (= x60 x133)) (and (not (= x93 x133)) (and (not (= x60 x93)) (and (and (and (and (and (not (= x118 x60)) (and (not (= x118 x93)) (not (= x118 x117)))) (not (= x133 x118))) (not (= x93 x117))) (not (= x117 x60))) (not (= x117 x133)))))) (and (not (= x70 x96)) (and (and (and (and (and (not (= x142 x31)) (and (and (not (= x79 x96)) (and (not (= x142 x79)) (not (= x31 x79)))) (not (= x79 x70)))) (not (= x142 x96))) (not (= x142 x70))) (not (= x96 x31))) (not (= x31 x70)))))) (and (and (not (= x58 x125)) (and (not (= x125 x24)) (and (and (not (= x24 x12)) (and (not (= x12 x125)) (and (and (not (= x24 x18)) (and (not (= x125 x18)) (not (= x18 x12)))) (not (= x58 x18))))) (not (= x58 x12))))) (not (= x58 x24))))) (and (and (not (= x22 x58)) (and (and (and (and (not (= x58 x70)) (and (and (not (= x133 x22)) (and (and (not (= x70 x133)) (not (= x10 x133))) (not (= x58 x133)))) (not (= x70 x10)))) (not (= x70 x22))) (not (= x58 x10))) (not (= x22 x10)))) (and (and (and (and (and (not (= x71 x96)) (and (not (= x24 x96)) (and (and (and (not (= x24 x60)) (and (not (= x60 x83)) (not (= x96 x60)))) (not (= x60 x71))) (not (= x96 x83))))) (not (= x83 x24))) (not (= x83 x71))) (not (= x24 x71))) (and (and (and (not (= x139 x18)) (and (not (= x89 x139)) (and (not (= x18 x89)) (and (and (not (= x79 x18)) (and (not (= x89 x79)) (and (and (not (= x18 x118)) (and (not (= x89 x118)) (not (= x79 x118)))) (not (= x118 x139))))) (not (= x79 x139)))))) (and (and (and (and (not (= x1 x142)) (and (and (and (and (and (not (= x117 x142)) (not (= x75 x117))) (not (= x12 x117))) (not (= x1 x117))) (not (= x75 x142))) (not (= x142 x12)))) (not (= x12 x75))) (not (= x1 x75))) (not (= x1 x12)))) (and (and (not (= x131 x153)) (and (not (= x125 x131)) (and (and (and (not (= x31 x131)) (and (not (= x153 x93)) (and (and (not (= x31 x93)) (not (= x93 x131))) (not (= x93 x125))))) (not (= x31 x125))) (not (= x31 x153))))) (not (= x153 x125)))))))))
(assert (or (and (and (and (not (= (x63 (x63 x135 x143) x143) x135)) (and (not (= x107 (x63 (x63 x107 x143) x143))) (not (= x158 (x63 (x63 x158 x143) x143))))) (not (= (x63 (x63 x78 x143) x143) x78))) (not (= (x63 (x63 x143 x143) x143) x143))) (or (or (or (and (not (= x143 (x63 (x63 x143 x107) x107))) (and (and (and (not (= x107 (x63 (x63 x107 x107) x107))) (not (= (x63 (x63 x158 x107) x107) x158))) (not (= (x63 (x63 x135 x107) x107) x135))) (not (= (x63 (x63 x78 x107) x107) x78)))) (and (not (= x143 (x63 (x63 x143 x158) x158))) (and (not (= x78 (x63 (x63 x78 x158) x158))) (and (and (not (= (x63 (x63 x107 x158) x158) x107)) (not (= x158 (x63 (x63 x158 x158) x158)))) (not (= x135 (x63 (x63 x135 x158) x158))))))) (and (not (= (x63 (x63 x143 x135) x135) x143)) (and (not (= x78 (x63 (x63 x78 x135) x135))) (and (not (= x135 (x63 (x63 x135 x135) x135))) (and (not (= x107 (x63 (x63 x107 x135) x135))) (not (= x158 (x63 (x63 x158 x135) x135)))))))) (and (and (not (= x78 (x63 (x63 x78 x78) x78))) (and (and (not (= x158 (x63 (x63 x158 x78) x78))) (not (= (x63 (x63 x107 x78) x78) x107))) (not (= x135 (x63 (x63 x135 x78) x78))))) (not (= (x63 (x63 x143 x78) x78) x143))))))
(assert (not (and (= x107 (x63 x143 x143)) (and (= (x63 x143 x78) x158) (and (= (x63 x143 x135) x135) (and (and (and (= (x63 x78 x143) x135) (and (= (x63 x78 x78) x107) (and (and (= (x63 x78 x158) x143) (and (and (and (and (= x107 (x63 x135 x135)) (and (and (= (x63 x135 x107) x78) (and (and (= x78 (x63 x158 x78)) (and (and (and (and (and (= x135 (x63 x107 x78)) (and (and (= (x63 x107 x107) x107) (= x158 (x63 x107 x158))) (= (x63 x107 x135) x143))) (= (x63 x107 x143) x78)) (= x135 (x63 x158 x107))) (= (x63 x158 x158) x107)) (= (x63 x158 x135) x158))) (= x143 (x63 x158 x143)))) (= x135 (x63 x135 x158)))) (= x143 (x63 x135 x78))) (= (x63 x135 x143) x158)) (= x158 (x63 x78 x107)))) (= (x63 x78 x135) x78)))) (= x143 (x63 x143 x107))) (= x78 (x63 x143 x158))))))))
(assert (or (and (= x143 (x63 (x63 x143 x143) x143)) (and (and (and (= (x63 (x63 x158 x143) x143) x158) (= x107 (x63 (x63 x107 x143) x143))) (= x135 (x63 (x63 x135 x143) x143))) (= x78 (x63 (x63 x78 x143) x143)))) (or (and (= (x63 (x63 x143 x78) x78) x143) (and (= (x63 (x63 x78 x78) x78) x78) (and (= x135 (x63 (x63 x135 x78) x78)) (and (= x107 (x63 (x63 x107 x78) x78)) (= (x63 (x63 x158 x78) x78) x158))))) (or (and (= (x63 (x63 x143 x135) x135) x143) (and (and (and (= x107 (x63 (x63 x107 x135) x135)) (= x158 (x63 (x63 x158 x135) x135))) (= x135 (x63 (x63 x135 x135) x135))) (= x78 (x63 (x63 x78 x135) x135)))) (or (and (and (and (= x135 (x63 (x63 x135 x107) x107)) (and (= x158 (x63 (x63 x158 x107) x107)) (= (x63 (x63 x107 x107) x107) x107))) (= x78 (x63 (x63 x78 x107) x107))) (= (x63 (x63 x143 x107) x107) x143)) (and (= (x63 (x63 x143 x158) x158) x143) (and (and (= x135 (x63 (x63 x135 x158) x158)) (and (= x158 (x63 (x63 x158 x158) x158)) (= (x63 (x63 x107 x158) x158) x107))) (= (x63 (x63 x78 x158) x158) x78))))))))
(assert (let ((x89 (x63 x158 x158)) (x79 (x63 x107 x107)) (x117 (x63 x143 x143)) (x18 (x63 x135 x135)) (x139 (x63 x78 x78))) (let ((x75 (not (= x135 x18))) (x12 (not (= x139 x78))) (x142 (not (= x158 x89))) (x118 (not (= x79 x107))) (x1 (not (= x117 x143)))) (or (or (and (and (not (= (x63 x78 x143) x143)) (and x12 (and (and (not (= x107 (x63 x78 x107))) (not (= x158 (x63 x78 x158)))) (not (= (x63 x78 x135) x135))))) (and (and x12 (and (not (= x18 x78)) (and (not (= x79 x78)) (not (= x89 x78))))) (not (= x117 x78)))) (or (or (and (and (and (and (not (= x135 (x63 x158 x135))) (and x142 (not (= (x63 x158 x107) x107)))) (not (= x78 (x63 x158 x78)))) (not (= x143 (x63 x158 x143)))) (and (and (not (= x139 x158)) (and (and x142 (not (= x79 x158))) (not (= x18 x158)))) (not (= x158 x117)))) (and (and (not (= x107 x117)) (and (and (and x118 (not (= x89 x107))) (not (= x18 x107))) (not (= x107 x139)))) (and (not (= x143 (x63 x107 x143))) (and (not (= (x63 x107 x78) x78)) (and (and (not (= (x63 x107 x158) x158)) x118) (not (= (x63 x107 x135) x135))))))) (and (and (not (= x135 x117)) (and (not (= x139 x135)) (and x75 (and (not (= x135 x79)) (not (= x135 x89)))))) (and (and (not (= (x63 x135 x78) x78)) (and x75 (and (not (= x158 (x63 x135 x158))) (not (= x107 (x63 x135 x107)))))) (not (= x143 (x63 x135 x143))))))) (and (and (and (and (and (not (= (x63 x143 x107) x107)) (not (= (x63 x143 x158) x158))) (not (= x135 (x63 x143 x135)))) (not (= (x63 x143 x78) x78))) x1) (and x1 (and (not (= x139 x143)) (and (not (= x18 x143)) (and (not (= x143 x89)) (not (= x143 x79)))))))))))
(assert (let ((x18 (x63 x78 x78)) (x118 (x63 x107 x107)) (x89 (x63 x135 x135)) (x139 (x63 x143 x143)) (x79 (x63 x158 x158))) (and (and (= (x63 x18 x18) x18) (and (= x89 (x63 x89 x89)) (and (= (x63 x118 x118) x118) (= x79 (x63 x79 x79))))) (= x139 (x63 x139 x139)))))
(assert (let ((x31 (x63 x135 x158)) (x83 (x63 x78 x135)) (x75 (x63 x158 x135)) (x96 (x63 x78 x158)) (x71 (x63 x78 x143)) (x139 (x63 x107 x143)) (x1 (x63 x158 x143)) (x131 (x63 x135 x135)) (x133 (x63 x143 x107)) (x93 (x63 x135 x107)) (x18 (x63 x107 x78)) (x125 (x63 x135 x78)) (x24 (x63 x78 x78)) (x70 (x63 x143 x158)) (x60 (x63 x78 x107)) (x58 (x63 x143 x78)) (x153 (x63 x135 x143)) (x118 (x63 x107 x107)) (x117 (x63 x158 x107)) (x12 (x63 x158 x78)) (x10 (x63 x143 x135)) (x89 (x63 x107 x135)) (x142 (x63 x158 x158)) (x79 (x63 x107 x158)) (x22 (x63 x143 x143))) (and (and (and (and (and (and (and (and (or (or (or (= x118 x135) (or (= x118 x158) (= x118 x107))) (= x78 x118)) (= x118 x143)) (or (= x79 x143) (or (= x78 x79) (or (= x79 x135) (or (= x79 x107) (= x158 x79)))))) (or (or (or (= x89 x135) (or (= x89 x158) (= x107 x89))) (= x78 x89)) (= x143 x89))) (or (or (or (= x135 x18) (or (= x18 x107) (= x18 x158))) (= x18 x78)) (= x18 x143))) (or (= x139 x143) (or (or (= x135 x139) (or (= x158 x139) (= x107 x139))) (= x139 x78)))) (and (or (= x1 x143) (or (= x78 x1) (or (or (= x1 x158) (= x1 x107)) (= x135 x1)))) (and (and (or (or (= x78 x75) (or (= x135 x75) (or (= x75 x158) (= x107 x75)))) (= x143 x75)) (and (or (= x143 x142) (or (= x78 x142) (or (= x135 x142) (or (= x142 x107) (= x142 x158))))) (or (= x117 x143) (or (= x117 x78) (or (= x117 x135) (or (= x117 x107) (= x158 x117))))))) (or (or (= x78 x12) (or (= x135 x12) (or (= x158 x12) (= x107 x12)))) (= x12 x143))))) (and (or (or (or (= x135 x153) (or (= x107 x153) (= x153 x158))) (= x153 x78)) (= x143 x153)) (and (or (= x125 x143) (or (= x78 x125) (or (= x125 x135) (or (= x158 x125) (= x107 x125))))) (and (or (or (= x78 x131) (or (or (= x131 x158) (= x107 x131)) (= x131 x135))) (= x131 x143)) (and (or (or (or (or (= x31 x158) (= x31 x107)) (= x135 x31)) (= x31 x78)) (= x143 x31)) (or (= x143 x93) (or (or (= x93 x135) (or (= x158 x93) (= x93 x107))) (= x78 x93)))))))) (and (and (and (and (or (or (= x78 x96) (or (= x135 x96) (or (= x96 x107) (= x158 x96)))) (= x96 x143)) (or (or (= x78 x60) (or (= x60 x135) (or (= x60 x107) (= x60 x158)))) (= x143 x60))) (or (= x83 x143) (or (= x83 x78) (or (or (= x83 x158) (= x107 x83)) (= x135 x83))))) (or (= x24 x143) (or (or (or (= x24 x158) (= x24 x107)) (= x135 x24)) (= x24 x78)))) (or (= x71 x143) (or (or (= x135 x71) (or (= x71 x107) (= x158 x71))) (= x78 x71))))) (and (and (and (or (or (or (= x135 x10) (or (= x158 x10) (= x107 x10))) (= x78 x10)) (= x143 x10)) (and (or (or (= x78 x133) (or (= x133 x135) (or (= x133 x107) (= x133 x158)))) (= x143 x133)) (or (or (= x78 x70) (or (or (= x70 x107) (= x158 x70)) (= x135 x70))) (= x143 x70)))) (or (= x58 x143) (or (= x78 x58) (or (= x58 x135) (or (= x158 x58) (= x107 x58)))))) (or (= x22 x143) (or (or (or (= x158 x22) (= x22 x107)) (= x22 x135)) (= x78 x22)))))))
(assert (let ((x155 (x63 x158 x158)) (x49 (x63 x78 x158)) (x62 (x63 x78 x135)) (x2 (x63 x107 x158)) (x147 (x63 x107 x107)) (x41 (x63 x143 x78)) (x27 (x63 x135 x107)) (x92 (x63 x158 x78)) (x3 (x63 x135 x78)) (x90 (x63 x143 x107)) (x91 (x63 x135 x143)) (x127 (x63 x158 x143)) (x15 (x63 x143 x135)) (x97 (x63 x135 x135)) (x81 (x63 x143 x143)) (x42 (x63 x78 x143)) (x110 (x63 x107 x135)) (x145 (x63 x158 x135)) (x140 (x63 x78 x78)) (x19 (x63 x135 x158)) (x64 (x63 x107 x78)) (x34 (x63 x158 x107)) (x6 (x63 x143 x158)) (x113 (x63 x107 x143)) (x26 (x63 x78 x107))) (let ((x139 (not (= x107 x27))) (x131 (not (= x107 x92))) (x154 (not (= x90 x143))) (x141 (not (= x158 x145))) (x104 (not (= x34 x158))) (x152 (not (= x135 x15))) (x79 (not (= x34 x107))) (x10 (not (= x107 x41))) (x125 (not (= x62 x107))) (x40 (not (= x64 x78))) (x33 (not (= x155 x158))) (x35 (not (= x135 x81))) (x25 (not (= x15 x78))) (x51 (not (= x158 x113))) (x133 (not (= x15 x107))) (x149 (not (= x3 x158))) (x20 (not (= x158 x26))) (x70 (not (= x91 x107))) (x55 (not (= x145 x135))) (x109 (not (= x158 x147))) (x13 (not (= x135 x113))) (x5 (not (= x135 x62))) (x121 (not (= x110 x78))) (x148 (not (= x155 x78))) (x69 (not (= x41 x143))) (x31 (not (= x49 x107))) (x108 (not (= x158 x140))) (x126 (not (= x27 x135))) (x86 (not (= x97 x135))) (x82 (not (= x62 x78))) (x56 (not (= x147 x143))) (x75 (not (= x145 x107))) (x118 (not (= x147 x107))) (x96 (not (= x107 x90))) (x132 (not (= x49 x135))) (x124 (not (= x135 x127))) (x23 (not (= x135 x91))) (x95 (not (= x158 x62))) (x36 (not (= x147 x135))) (x114 (not (= x155 x143))) (x105 (not (= x34 x135))) (x43 (not (= x147 x78))) (x93 (not (= x107 x64))) (x54 (not (= x64 x135))) (x68 (not (= x78 x6))) (x39 (not (= x26 x143))) (x12 (not (= x97 x107))) (x94 (not (= x78 x127))) (x11 (not (= x6 x158))) (x157 (not (= x81 x158))) (x59 (not (= x135 x2))) (x134 (not (= x42 x78))) (x112 (not (= x113 x143))) (x144 (not (= x145 x78))) (x22 (not (= x107 x81))) (x37 (not (= x42 x135))) (x50 (not (= x110 x143))) (x119 (not (= x135 x140))) (x87 (not (= x49 x158))) (x74 (not (= x135 x19))) (x53 (not (= x158 x90))) (x47 (not (= x158 x92))) (x138 (not (= x78 x19))) (x128 (not (= x143 x34))) (x65 (not (= x135 x90))) (x115 (not (= x19 x158))) (x24 (not (= x107 x6))) (x72 (not (= x64 x143))) (x60 (not (= x107 x140))) (x46 (not (= x135 x155))) (x4 (not (= x143 x127))) (x21 (not (= x78 x97))) (x111 (not (= x143 x145))) (x67 (not (= x19 x143))) (x66 (not (= x49 x143))) (x16 (not (= x143 x81))) (x77 (not (= x143 x2))) (x116 (not (= x78 x81))) (x117 (not (= x110 x107))) (x45 (not (= x78 x41))) (x120 (not (= x26 x78))) (x103 (not (= x78 x3))) (x88 (not (= x6 x143))) (x7 (not (= x41 x135))) (x80 (not (= x143 x27))) (x14 (not (= x90 x78))) (x30 (not (= x158 x91))) (x101 (not (= x92 x78))) (x9 (not (= x91 x143))) (x100 (not (= x158 x97))) (x146 (not (= x78 x2))) (x52 (not (= x158 x127))) (x83 (not (= x107 x113))) (x85 (not (= x110 x135))) (x38 (not (= x135 x6))) (x122 (not (= x110 x158))) (x29 (not (= x64 x158))) (x28 (not (= x140 x78))) (x98 (not (= x143 x15))) (x153 (not (= x3 x107))) (x32 (not (= x41 x158))) (x76 (not (= x135 x3))) (x156 (not (= x27 x158))) (x61 (not (= x135 x26))) (x123 (not (= x62 x143))) (x159 (not (= x113 x78))) (x1 (not (= x107 x26))) (x58 (not (= x107 x42))) (x136 (not (= x78 x49))) (x84 (not (= x143 x97))) (x73 (not (= x158 x15))) (x137 (not (= x92 x143))) (x71 (not (= x107 x127))) (x44 (not (= x158 x2))) (x129 (not (= x92 x135))) (x89 (not (= x107 x2))) (x106 (not (= x91 x78))) (x130 (not (= x158 x42))) (x142 (not (= x107 x19))) (x18 (not (= x107 x155))) (x99 (not (= x143 x140))) (x102 (not (= x42 x143))) (x8 (not (= x78 x27))) (x48 (not (= x3 x143))) (x17 (not (= x78 x34)))) (or (and (and (and (or x69 x102) (and (or x98 x9) (and (or x154 x112) (or x4 x88)))) (or x16 x16)) (and (and (and (and (or x48 x123) (and (and (or x80 x50) (or x67 x111)) (or x84 x84))) (or x98 x9)) (and (and (or x154 x112) (and (and (and (or x56 x56) (or x77 x128)) (or x80 x50)) (or x39 x72))) (and (or x4 x88) (and (or x137 x66) (and (and (or x128 x77) (or x114 x114)) (or x111 x67)))))) (and (or x69 x102) (and (or x99 x99) (and (and (or x137 x66) (or x72 x39)) (or x123 x48)))))) (or (or (or (and (and (and (or x58 x10) (and (and (or x125 x153) (and (or x31 x131) (or x93 x1))) (or x60 x60))) (and (and (and (or x83 x96) (and (and (and (or x118 x118) (or x79 x89)) (or x139 x117)) (or x1 x93))) (and (and (and (or x142 x75) (and (or x18 x18) (or x89 x79))) (or x131 x31)) (or x24 x71))) (and (and (or x125 x153) (and (and (or x142 x75) (or x139 x117)) (or x12 x12))) (or x70 x133)))) (and (or x22 x22) (and (and (or x70 x133) (and (or x96 x83) (or x24 x71))) (or x58 x10)))) (and (and (and (and (and (and (or x20 x29) (and (and (or x109 x109) (or x104 x44)) (or x122 x156))) (or x51 x53)) (and (and (and (and (or x33 x33) (or x44 x104)) (or x115 x141)) (or x47 x87)) (or x11 x52))) (and (or x73 x30) (and (and (or x100 x100) (and (or x156 x122) (or x115 x141))) (or x95 x149)))) (and (or x130 x32) (and (and (or x95 x149) (and (or x47 x87) (or x20 x29))) (or x108 x108)))) (and (or x157 x157) (and (and (or x73 x30) (and (or x11 x52) (or x53 x51))) (or x130 x32))))) (and (and (and (or x7 x37) (and (or x23 x152) (and (or x13 x65) (or x38 x124)))) (or x35 x35)) (and (and (and (or x23 x152) (and (and (and (or x55 x74) (or x126 x85)) (or x86 x86)) (or x76 x5))) (and (and (or x65 x13) (and (and (or x85 x126) (and (or x105 x59) (or x36 x36))) (or x54 x61))) (and (or x124 x38) (and (or x129 x132) (and (and (or x46 x46) (or x105 x59)) (or x55 x74)))))) (and (or x7 x37) (and (and (and (or x54 x61) (or x129 x132)) (or x5 x76)) (or x119 x119)))))) (and (and (and (or x45 x134) (and (or x28 x28) (and (or x103 x82) (and (or x101 x136) (or x40 x120))))) (and (and (and (and (or x136 x101) (and (and (or x17 x146) (or x148 x148)) (or x144 x138))) (or x94 x68)) (and (and (or x120 x40) (and (and (or x146 x17) (or x43 x43)) (or x8 x121))) (or x14 x159))) (and (or x25 x106) (and (or x82 x103) (and (or x21 x21) (and (or x121 x8) (or x138 x144))))))) (and (and (and (or x106 x25) (and (or x94 x68) (or x159 x14))) (or x134 x45)) (or x116 x116))))))))
(assert (let ((x93 (x63 x135 x107)) (x75 (x63 x158 x135)) (x70 (x63 x143 x158)) (x131 (x63 x135 x135)) (x83 (x63 x78 x135)) (x96 (x63 x78 x158)) (x18 (x63 x107 x78)) (x60 (x63 x78 x107)) (x125 (x63 x135 x78)) (x24 (x63 x78 x78)) (x139 (x63 x107 x143)) (x71 (x63 x78 x143)) (x22 (x63 x143 x143)) (x133 (x63 x143 x107)) (x79 (x63 x107 x158)) (x142 (x63 x158 x158)) (x89 (x63 x107 x135)) (x1 (x63 x158 x143)) (x31 (x63 x135 x158)) (x153 (x63 x135 x143)) (x58 (x63 x143 x78)) (x118 (x63 x107 x107)) (x12 (x63 x158 x78)) (x10 (x63 x143 x135)) (x117 (x63 x158 x107))) (or (or (or (and (and (and (and (not (= (x63 x135 x131) x135)) (not (= x135 (x63 x131 x135)))) (and (and (not (= (x63 x31 x135) x158)) (not (= x158 (x63 x135 x31)))) (and (not (= x107 (x63 x93 x135))) (not (= x107 (x63 x135 x93)))))) (and (not (= x78 (x63 x135 x125))) (not (= (x63 x125 x135) x78)))) (and (not (= (x63 x153 x135) x143)) (not (= (x63 x135 x153) x143)))) (or (and (and (and (and (and (not (= (x63 x107 x79) x158)) (not (= x158 (x63 x79 x107)))) (and (not (= x107 (x63 x118 x107))) (not (= x107 (x63 x107 x118))))) (and (not (= (x63 x107 x89) x135)) (not (= x135 (x63 x89 x107))))) (and (not (= x78 (x63 x18 x107))) (not (= x78 (x63 x107 x18))))) (and (not (= x143 (x63 x107 x139))) (not (= x143 (x63 x139 x107))))) (and (and (and (and (and (not (= (x63 x158 x117) x107)) (not (= (x63 x117 x158) x107))) (and (not (= x158 (x63 x158 x142))) (not (= (x63 x142 x158) x158)))) (and (not (= (x63 x75 x158) x135)) (not (= x135 (x63 x158 x75))))) (and (not (= (x63 x158 x12) x78)) (not (= (x63 x12 x158) x78)))) (and (not (= (x63 x158 x1) x143)) (not (= (x63 x1 x158) x143)))))) (and (and (and (not (= x78 (x63 x24 x78))) (not (= (x63 x78 x24) x78))) (and (and (and (not (= x107 (x63 x60 x78))) (not (= x107 (x63 x78 x60)))) (and (not (= (x63 x96 x78) x158)) (not (= (x63 x78 x96) x158)))) (and (not (= x135 (x63 x78 x83))) (not (= (x63 x83 x78) x135))))) (and (not (= (x63 x71 x78) x143)) (not (= (x63 x78 x71) x143))))) (and (and (not (= (x63 x143 x22) x143)) (not (= x143 (x63 x22 x143)))) (and (and (not (= (x63 x143 x58) x78)) (not (= x78 (x63 x58 x143)))) (and (and (and (not (= (x63 x143 x133) x107)) (not (= x107 (x63 x133 x143)))) (and (not (= (x63 x70 x143) x158)) (not (= x158 (x63 x143 x70))))) (and (not (= x135 (x63 x10 x143))) (not (= (x63 x143 x10) x135)))))))))
(assert (let ((x12 (x63 x158 x78)) (x70 (x63 x143 x158)) (x71 (x63 x78 x143)) (x24 (x63 x78 x78)) (x18 (x63 x107 x78)) (x117 (x63 x158 x107)) (x79 (x63 x107 x158)) (x139 (x63 x107 x143)) (x58 (x63 x143 x78)) (x133 (x63 x143 x107)) (x75 (x63 x158 x135)) (x60 (x63 x78 x107)) (x10 (x63 x143 x135)) (x125 (x63 x135 x78)) (x1 (x63 x158 x143)) (x96 (x63 x78 x158)) (x31 (x63 x135 x158)) (x118 (x63 x107 x107)) (x22 (x63 x143 x143)) (x153 (x63 x135 x143)) (x131 (x63 x135 x135)) (x89 (x63 x107 x135)) (x83 (x63 x78 x135)) (x142 (x63 x158 x158)) (x93 (x63 x135 x107))) (and (and (or (= x143 (x63 x71 x71)) (or (or (or (= x158 (x63 x96 x96)) (= x107 (x63 x60 x60))) (= x135 (x63 x83 x83))) (= (x63 x24 x24) x78))) (and (and (or (or (or (or (= (x63 x79 x79) x158) (= x107 (x63 x118 x118))) (= (x63 x89 x89) x135)) (= x78 (x63 x18 x18))) (= (x63 x139 x139) x143)) (or (= x143 (x63 x1 x1)) (or (or (or (= x107 (x63 x117 x117)) (= (x63 x142 x142) x158)) (= (x63 x75 x75) x135)) (= x78 (x63 x12 x12))))) (or (or (or (or (= x158 (x63 x31 x31)) (= x107 (x63 x93 x93))) (= x135 (x63 x131 x131))) (= x78 (x63 x125 x125))) (= (x63 x153 x153) x143)))) (or (or (or (or (= (x63 x133 x133) x107) (= x158 (x63 x70 x70))) (= x135 (x63 x10 x10))) (= (x63 x58 x58) x78)) (= x143 (x63 x22 x22))))))
(assert (and (and (and (not (= x78 x135)) (and (not (= x143 x158)) (and (and (and (not (= x107 x143)) (and (and (not (= x107 x135)) (not (= x158 x107))) (not (= x107 x78)))) (not (= x158 x135))) (not (= x78 x158))))) (not (= x143 x135))) (not (= x78 x143))))
(assert (and (and (and (= (x63 x135 x135) x107) (= (x63 x135 x143) x158)) (= (x63 x107 x143) x78)) (= x143 (x63 x107 x135))))
(assert (or (and (not (= (x63 x143 (x63 x143 x143)) x143)) (and (and (not (= (x63 x143 (x63 x143 x135)) x135)) (and (not (= x107 (x63 x143 (x63 x143 x107)))) (not (= x158 (x63 x143 (x63 x143 x158)))))) (not (= (x63 x143 (x63 x143 x78)) x78)))) (or (and (and (not (= x78 (x63 x78 (x63 x78 x78)))) (and (and (not (= (x63 x78 (x63 x78 x158)) x158)) (not (= (x63 x78 (x63 x78 x107)) x107))) (not (= x135 (x63 x78 (x63 x78 x135)))))) (not (= (x63 x78 (x63 x78 x143)) x143))) (or (or (and (not (= x143 (x63 x107 (x63 x107 x143)))) (and (not (= (x63 x107 (x63 x107 x78)) x78)) (and (and (not (= (x63 x107 (x63 x107 x107)) x107)) (not (= (x63 x107 (x63 x107 x158)) x158))) (not (= x135 (x63 x107 (x63 x107 x135))))))) (and (and (not (= x78 (x63 x158 (x63 x158 x78)))) (and (not (= (x63 x158 (x63 x158 x135)) x135)) (and (not (= (x63 x158 (x63 x158 x107)) x107)) (not (= x158 (x63 x158 (x63 x158 x158))))))) (not (= x143 (x63 x158 (x63 x158 x143)))))) (and (not (= (x63 x135 (x63 x135 x143)) x143)) (and (and (and (not (= x158 (x63 x135 (x63 x135 x158)))) (not (= (x63 x135 (x63 x135 x107)) x107))) (not (= x135 (x63 x135 (x63 x135 x135))))) (not (= (x63 x135 (x63 x135 x78)) x78))))))))
(assert (or (and (not (= x143 (x63 (x63 x143 x143) x143))) (and (and (and (not (= (x63 (x63 x143 x107) x143) x107)) (not (= x158 (x63 (x63 x143 x158) x143)))) (not (= x135 (x63 (x63 x143 x135) x143)))) (not (= x78 (x63 (x63 x143 x78) x143))))) (or (and (and (not (= (x63 (x63 x78 x78) x78) x78)) (and (and (not (= (x63 (x63 x78 x107) x78) x107)) (not (= x158 (x63 (x63 x78 x158) x78)))) (not (= x135 (x63 (x63 x78 x135) x78))))) (not (= (x63 (x63 x78 x143) x78) x143))) (or (or (and (and (not (= x78 (x63 (x63 x158 x78) x158))) (and (not (= (x63 (x63 x158 x135) x158) x135)) (and (not (= x158 (x63 (x63 x158 x158) x158))) (not (= (x63 (x63 x158 x107) x158) x107))))) (not (= x143 (x63 (x63 x158 x143) x158)))) (and (not (= x143 (x63 (x63 x107 x143) x107))) (and (and (and (not (= (x63 (x63 x107 x107) x107) x107)) (not (= x158 (x63 (x63 x107 x158) x107)))) (not (= x135 (x63 (x63 x107 x135) x107)))) (not (= (x63 (x63 x107 x78) x107) x78))))) (and (not (= x143 (x63 (x63 x135 x143) x135))) (and (not (= x78 (x63 (x63 x135 x78) x135))) (and (not (= (x63 (x63 x135 x135) x135) x135)) (and (not (= (x63 (x63 x135 x107) x135) x107)) (not (= x158 (x63 (x63 x135 x158) x135)))))))))))
(assert (let ((x89 (x63 x158 x158)) (x117 (x63 x143 x143)) (x79 (x63 x107 x107)) (x18 (x63 x135 x135)) (x139 (x63 x78 x78))) (let ((x75 (= x89 x158)) (x131 (= x135 x18)) (x153 (= x117 x143)) (x118 (= x107 x79)) (x125 (= x78 x139))) (let ((x1 (and (not (= x117 x135)) (and (and (and (not (= x135 x79)) (not (= x135 x89))) (not x131)) (not (= x135 x139))))) (x142 (and (and (and (and (not (= x107 x89)) (not x118)) (not (= x107 x18))) (not (= x107 x139))) (not (= x117 x107)))) (x31 (and (and (not (= x139 x143)) (and (and (not (= x143 x89)) (not (= x79 x143))) (not (= x18 x143)))) (not x153))) (x93 (and (and (and (not (= x18 x78)) (and (not (= x78 x79)) (not (= x78 x89)))) (not x125)) (not (= x117 x78)))) (x12 (and (not (= x117 x158)) (and (and (not (= x158 x18)) (and (not x75) (not (= x79 x158)))) (not (= x158 x139)))))) (or (or (or (or (or (and (= (x63 x135 x78) x135) x93) (or (or (and x142 (= x135 (x63 x135 x107))) (and (= (x63 x135 x158) x135) x12)) (and x131 x1))) (and (= (x63 x135 x143) x135) x31)) (or (or (or (or (or (and x12 (= x107 (x63 x107 x158))) (and x118 x142)) (and (= x107 (x63 x107 x135)) x1)) (and (= (x63 x107 x78) x107) x93)) (and x31 (= x107 (x63 x107 x143)))) (or (or (and (= x158 (x63 x158 x78)) x93) (or (or (and x142 (= (x63 x158 x107) x158)) (and x12 x75)) (and x1 (= x158 (x63 x158 x135))))) (and x31 (= (x63 x158 x143) x158))))) (or (or (or (or (and x142 (= (x63 x78 x107) x78)) (and (= x78 (x63 x78 x158)) x12)) (and (= x78 (x63 x78 x135)) x1)) (and x93 x125)) (and x31 (= x78 (x63 x78 x143))))) (or (or (and x93 (= x143 (x63 x143 x78))) (or (and (= (x63 x143 x135) x143) x1) (or (and x12 (= x143 (x63 x143 x158))) (and (= (x63 x143 x107) x143) x142)))) (and x31 x153)))))))
(assert (let ((x70 (x63 x158 x143)) (x109 (x63 x143 x158)) (x55 (x63 x143 x78)) (x159 (x63 x143 x143)) (x139 (x63 x107 x78)) (x117 (x63 x107 x143)) (x127 (x63 x135 x135)) (x12 (x63 x135 x107)) (x89 (x63 x107 x158)) (x71 (x63 x158 x135)) (x79 (x63 x107 x107)) (x133 (x63 x158 x78)) (x18 (x63 x107 x135)) (x1 (x63 x78 x107)) (x105 (x63 x78 x78)) (x59 (x63 x78 x143)) (x97 (x63 x78 x135)) (x100 (x63 x143 x135)) (x156 (x63 x135 x143)) (x75 (x63 x158 x107)) (x93 (x63 x143 x107)) (x147 (x63 x78 x158)) (x24 (x63 x158 x158)) (x6 (x63 x135 x78)) (x22 (x63 x135 x158))) (let ((x26 (= x78 x24)) (x146 (= x143 x6)) (x149 (= x78 x127)) (x90 (= x143 x89)) (x60 (= x89 x107)) (x154 (= x93 x143)) (x114 (= x70 x135)) (x145 (= x107 x71)) (x3 (= x12 x135)) (x11 (= x147 x107)) (x137 (= x70 x78)) (x45 (= x158 x159)) (x136 (= x107 x59)) (x80 (= x156 x135)) (x81 (= x1 x158)) (x95 (= x78 x71)) (x152 (= x78 x6)) (x39 (= x78 x100)) (x148 (= x143 x105)) (x50 (= x135 x59)) (x74 (= x158 x105)) (x141 (= x158 x127)) (x17 (= x143 x133)) (x123 (= x78 x156)) (x115 (= x71 x158)) (x85 (= x6 x158)) (x14 (= x158 x55)) (x94 (= x158 x70)) (x129 (= x133 x135)) (x58 (= x24 x158)) (x73 (= x139 x107)) (x40 (= x156 x107)) (x110 (= x135 x24)) (x124 (= x133 x78)) (x65 (= x147 x78)) (x66 (= x117 x78)) (x108 (= x22 x143)) (x52 (= x107 x97)) (x33 (= x18 x107)) (x28 (= x158 x100)) (x32 (= x6 x107)) (x106 (= x59 x158)) (x118 (= x107 x79)) (x103 (= x109 x158)) (x102 (= x59 x143)) (x68 (= x117 x158)) (x101 (= x107 x159)) (x44 (= x107 x12)) (x87 (= x78 x22)) (x112 (= x109 x143)) (x41 (= x71 x143)) (x25 (= x158 x156)) (x91 (= x135 x18)) (x53 (= x127 x143)) (x54 (= x135 x97)) (x76 (= x105 x135)) (x23 (= x78 x105)) (x153 (= x75 x107)) (x38 (= x78 x139)) (x5 (= x6 x135)) (x96 (= x24 x107)) (x138 (= x100 x107)) (x15 (= x71 x135)) (x82 (= x93 x158)) (x155 (= x22 x107)) (x34 (= x89 x135)) (x130 (= x107 x105)) (x61 (= x147 x135)) (x31 (= x79 x135)) (x9 (= x70 x143)) (x42 (= x18 x143)) (x99 (= x78 x159)) (x131 (= x78 x79)) (x132 (= x139 x135)) (x8 (= x107 x93)) (x119 (= x1 x78)) (x116 (= x135 x109)) (x144 (= x55 x107)) (x10 (= x158 x89)) (x30 (= x107 x133)) (x157 (= x147 x158)) (x13 (= x78 x97)) (x2 (= x135 x75)) (x86 (= x135 x1)) (x84 (= x109 x78)) (x35 (= x97 x143)) (x125 (= x143 x79)) (x121 (= x107 x109)) (x7 (= x143 x1)) (x128 (= x55 x135)) (x69 (= x143 x156)) (x111 (= x78 x93)) (x49 (= x158 x22)) (x77 (= x135 x117)) (x92 (= x12 x158)) (x19 (= x127 x107)) (x98 (= x117 x143)) (x122 (= x18 x158)) (x29 (= x12 x78)) (x142 (= x158 x79)) (x120 (= x70 x107)) (x47 (= x18 x78)) (x113 (= x143 x75)) (x21 (= x107 x117)) (x20 (= x127 x135)) (x37 (= x143 x147)) (x36 (= x158 x97)) (x46 (= x139 x158)) (x72 (= x55 x78)) (x16 (= x143 x159)) (x4 (= x143 x55)) (x67 (= x159 x135)) (x27 (= x78 x75)) (x134 (= x135 x93)) (x56 (= x135 x100)) (x48 (= x78 x59)) (x83 (= x158 x75)) (x62 (= x22 x135)) (x104 (= x24 x143)) (x88 (= x143 x100)) (x140 (= x12 x143)) (x51 (= x107 x1)) (x43 (= x139 x143)) (x126 (= x133 x158)) (x64 (= x89 x78))) (and (and (and (and (and (and (and (or (or (or x29 (or x27 x131)) x119) x111) (or (or (or x47 (or x64 x131)) x38) x66)) (and (and (or (or x132 (or (or x34 x31) x91)) x77) (or (or x86 (or (or x31 x2) x3)) x134)) (and (and (or x68 (or x46 (or (or x142 x10) x122))) (or (or (or (or x142 x83) x92) x81) x82)) (and (or (or x51 (or x44 (or x153 x118))) x8) (or (or x73 (or (or x60 x118) x33)) x21))))) (and (or (or (or x42 (or x125 x90)) x43) x98) (or (or x7 (or (or x113 x125) x140)) x154))) (and (and (or (or x17 (or x41 (or x104 x113))) x9) (or (or (or (or x90 x104) x108) x37) x112)) (and (and (and (or (or x61 (or (or x110 x34) x62)) x116) (or (or (or (or x110 x2) x15) x129) x114)) (and (and (or (or (or x155 (or x60 x96)) x11) x121) (or (or (or x145 (or x153 x96)) x30) x120)) (and (or x94 (or x126 (or x115 (or x58 x83)))) (or x103 (or (or x49 (or x58 x10)) x157))))) (and (or x137 (or x124 (or (or x27 x26) x95))) (or x84 (or (or (or x26 x64) x87) x65)))))) (and (and (or (or (or x53 (or x41 x42)) x35) x88) (or (or x146 (or (or x108 x140) x53)) x69)) (and (and (and (and (or (or x36 (or (or x122 x115) x141)) x28) (or (or (or x141 (or x92 x49)) x85) x25)) (and (or x138 (or (or (or x33 x145) x19) x52)) (or (or (or (or x155 x44) x19) x32) x40))) (and (or x80 (or (or (or x62 x3) x20) x5)) (or (or x54 (or (or x91 x15) x20)) x56))) (and (or (or (or (or x47 x95) x149) x13) x39) (or (or (or x149 (or x29 x87)) x152) x123))))) (and (and (or (or (or x35 (or x37 x7)) x148) x102) (or x4 (or x148 (or (or x43 x17) x146)))) (and (and (and (or x50 (or x76 (or x54 (or x61 x86)))) (or (or (or x5 (or x132 x129)) x76) x128)) (and (and (or x106 (or x74 (or (or x81 x157) x36))) (or (or x74 (or x85 (or x126 x46))) x14)) (and (or x136 (or x130 (or x52 (or x51 x11)))) (or x144 (or (or x32 (or x73 x30)) x130))))) (and (or (or (or x13 (or x65 x119)) x23) x48) (or x72 (or x23 (or x152 (or x38 x124)))))))) (and (and (or x16 (or (or (or x9 x98) x69) x102)) (or x16 (or x4 (or (or x154 x112) x88)))) (and (and (or (or (or (or x111 x84) x39) x72) x99) (or x99 (or x48 (or (or x66 x137) x123)))) (and (and (or x67 (or (or (or x114 x77) x80) x50)) (or (or (or (or x116 x134) x56) x128) x67)) (and (and (or x101 (or (or (or x21 x120) x40) x136)) (or x101 (or (or x138 (or x121 x8)) x144))) (and (or (or (or (or x94 x68) x25) x106) x45) (or (or x14 (or x28 (or x82 x103))) x45))))))))))
(assert (let ((x18 (x63 x78 x78)) (x139 (x63 x143 x143)) (x89 (x63 x135 x135)) (x79 (x63 x158 x158)) (x118 (x63 x107 x107))) (or (and (not (= x143 x139)) (and (not (= x18 x143)) (and (and (not (= x118 x143)) (not (= x143 x79))) (not (= x143 x89))))) (or (or (and (not (= x135 x139)) (and (and (and (not (= x135 x118)) (not (= x79 x135))) (not (= x135 x89))) (not (= x135 x18)))) (or (and (not (= x139 x158)) (and (and (not (= x89 x158)) (and (not (= x79 x158)) (not (= x158 x118)))) (not (= x18 x158)))) (and (and (and (not (= x107 x89)) (and (not (= x107 x118)) (not (= x79 x107)))) (not (= x18 x107))) (not (= x107 x139))))) (and (not (= x78 x139)) (and (not (= x18 x78)) (and (not (= x78 x89)) (and (not (= x118 x78)) (not (= x78 x79))))))))))
(assert (not (and (= x107 (x63 x143 x143)) (and (= x143 (x63 x143 x78)) (and (= (x63 x143 x135) x78) (and (and (and (= (x63 x78 x143) x135) (and (= (x63 x78 x78) x107) (and (and (and (= x143 (x63 x78 x107)) (and (= (x63 x135 x143) x158) (and (= x78 (x63 x135 x78)) (and (= (x63 x135 x135) x107) (and (= x143 (x63 x135 x158)) (and (and (= (x63 x158 x143) x143) (and (and (= (x63 x158 x135) x135) (and (= (x63 x158 x158) x107) (and (= x78 (x63 x158 x107)) (and (= x78 (x63 x107 x143)) (and (and (and (= (x63 x107 x158) x158) (= (x63 x107 x107) x107)) (= x143 (x63 x107 x135))) (= x135 (x63 x107 x78))))))) (= x158 (x63 x158 x78)))) (= (x63 x135 x107) x135))))))) (= (x63 x78 x158) x78)) (= (x63 x78 x135) x158)))) (= x158 (x63 x143 x107))) (= (x63 x143 x158) x135)))))))
(assert (or (or (and (not (= (x63 x143 (x63 x78 x143)) x78)) (and (not (= x78 (x63 x78 (x63 x78 x78)))) (and (and (not (= (x63 x107 (x63 x78 x107)) x78)) (not (= (x63 x158 (x63 x78 x158)) x78))) (not (= (x63 x135 (x63 x78 x135)) x78))))) (or (and (and (not (= x135 (x63 x78 (x63 x135 x78)))) (and (not (= x135 (x63 x135 (x63 x135 x135)))) (and (not (= x135 (x63 x107 (x63 x135 x107)))) (not (= x135 (x63 x158 (x63 x135 x158))))))) (not (= (x63 x143 (x63 x135 x143)) x135))) (or (and (not (= x158 (x63 x143 (x63 x158 x143)))) (and (and (not (= (x63 x135 (x63 x158 x135)) x158)) (and (not (= (x63 x107 (x63 x158 x107)) x158)) (not (= x158 (x63 x158 (x63 x158 x158)))))) (not (= x158 (x63 x78 (x63 x158 x78)))))) (and (not (= x107 (x63 x143 (x63 x107 x143)))) (and (and (and (not (= x107 (x63 x107 (x63 x107 x107)))) (not (= (x63 x158 (x63 x107 x158)) x107))) (not (= (x63 x135 (x63 x107 x135)) x107))) (not (= (x63 x78 (x63 x107 x78)) x107))))))) (and (not (= x143 (x63 x143 (x63 x143 x143)))) (and (and (and (not (= (x63 x107 (x63 x143 x107)) x143)) (not (= x143 (x63 x158 (x63 x143 x158))))) (not (= (x63 x135 (x63 x143 x135)) x143))) (not (= (x63 x78 (x63 x143 x78)) x143))))))
(assert (or (= (x63 x143 x143) x143) (or (= (x63 x78 x78) x78) (or (= (x63 x135 x135) x135) (or (= x158 (x63 x158 x158)) (= (x63 x107 x107) x107))))))
(assert (let ((x147 (x63 x107 x107)) (x70 (x63 x135 x143)) (x83 (x63 x107 x143)) (x33 (x63 x78 x107)) (x153 (x63 x135 x78)) (x142 (x63 x135 x158)) (x133 (x63 x143 x135)) (x75 (x63 x158 x135)) (x24 (x63 x143 x158)) (x26 (x63 x135 x107)) (x10 (x63 x143 x78)) (x31 (x63 x78 x158)) (x117 (x63 x107 x135)) (x89 (x63 x107 x158)) (x60 (x63 x78 x78)) (x71 (x63 x158 x143)) (x125 (x63 x78 x135)) (x93 (x63 x107 x78)) (x131 (x63 x158 x78)) (x2 (x63 x158 x107)) (x12 (x63 x135 x135)) (x22 (x63 x143 x143)) (x6 (x63 x143 x107)) (x18 (x63 x158 x158)) (x58 (x63 x78 x143))) (let ((x110 (= x142 x158)) (x139 (= x107 x26)) (x19 (= x78 x131)) (x79 (= x107 x2)) (x115 (= x143 x70)) (x64 (= x158 x24)) (x145 (= x93 x78)) (x141 (= x58 x143)) (x34 (= x158 x18)) (x109 (= x158 x89)) (x1 (= x33 x107)) (x97 (= x143 x22)) (x155 (= x135 x133)) (x92 (= x153 x78)) (x122 (= x143 x71)) (x127 (= x10 x78)) (x90 (= x75 x135)) (x49 (= x78 x60)) (x27 (= x31 x158)) (x118 (= x147 x107)) (x156 (= x83 x143)) (x113 (= x135 x117)) (x44 (= x135 x125)) (x96 (= x6 x107)) (x104 (= x135 x12))) (and (and (and (and (or (or (or (or (or (and x122 (= x107 x24)) (and x156 x96)) (and (= x133 x107) x115)) (and x141 (= x107 x10))) (and (= x22 x107) x97)) (or (or (and (= x107 x58) x127) (or (and (= x107 x60) x49) (or (or (and (= x31 x107) x19) (and x1 x145)) (and x92 (= x107 x125))))) (or (or (or (and x44 (= x153 x107)) (or (and (= x12 x107) x104) (or (and (= x142 x107) x90) (and x139 x113)))) (and (= x107 x70) x155)) (or (or (and x96 (= x83 x107)) (or (or (and (= x107 x117) x139) (or (and x118 x118) (and (= x107 x89) x79))) (and (= x107 x93) x1))) (or (or (or (and (= x107 x75) x110) (or (and x109 x79) (and (= x107 x18) x34))) (and (= x131 x107) x27)) (and x64 (= x107 x71))))))) (or (or (or (and x127 (= x58 x158)) (or (or (and x92 (= x125 x158)) (or (and x27 x19) (and (= x158 x33) x145))) (and (= x60 x158) x49))) (or (or (or (or (and x1 (= x93 x158)) (or (and x139 (= x117 x158)) (or (and x109 x79) (and x118 (= x158 x147))))) (and (= x83 x158) x96)) (or (or (or (and x110 (= x75 x158)) (or (and x34 x34) (and (= x2 x158) x109))) (and (= x131 x158) x27)) (and x64 (= x71 x158)))) (or (or (or (and x104 (= x12 x158)) (or (and (= x158 x26) x113) (and x110 x90))) (and (= x158 x153) x44)) (and (= x158 x70) x155)))) (or (and x97 (= x158 x22)) (or (and (= x158 x10) x141) (or (or (and (= x158 x6) x156) (and x122 x64)) (and x115 (= x158 x133))))))) (or (or (and x97 (= x135 x22)) (or (or (or (and (= x24 x135) x122) (and (= x135 x6) x156)) (and x155 x115)) (and (= x135 x10) x141))) (or (or (or (or (or (and x1 (= x93 x135)) (or (and x139 x113) (or (and x79 (= x89 x135)) (and (= x147 x135) x118)))) (and (= x135 x83) x96)) (or (and (= x135 x71) x64) (or (and (= x131 x135) x27) (or (or (and (= x18 x135) x34) (and x109 (= x2 x135))) (and x110 x90))))) (or (and (= x70 x135) x155) (or (and x44 (= x135 x153)) (or (and x104 x104) (or (and x90 (= x142 x135)) (and (= x135 x26) x113)))))) (or (or (or (or (and (= x31 x135) x19) (and (= x33 x135) x145)) (and x44 x92)) (and (= x135 x60) x49)) (and x127 (= x58 x135)))))) (or (or (and x97 (= x78 x22)) (or (or (or (and (= x78 x24) x122) (and (= x6 x78) x156)) (and x115 (= x133 x78))) (and x127 x141))) (or (or (or (and (= x78 x70) x155) (or (or (or (and x90 (= x142 x78)) (and (= x78 x26) x113)) (and (= x78 x12) x104)) (and x92 x44))) (or (or (and x96 (= x83 x78)) (or (or (and (= x117 x78) x139) (or (and (= x78 x89) x79) (and (= x78 x147) x118))) (and x1 x145))) (or (and (= x71 x78) x64) (or (or (and (= x75 x78) x110) (or (and (= x78 x2) x109) (and x34 (= x78 x18)))) (and x27 x19))))) (or (or (and x49 x49) (or (and x92 (= x125 x78)) (or (and (= x31 x78) x19) (and (= x33 x78) x145)))) (and x127 (= x78 x58)))))) (or (or (or (and x141 x127) (or (and x49 (= x143 x60)) (or (and (= x143 x125) x92) (or (and x19 (= x143 x31)) (and x145 (= x33 x143)))))) (or (or (or (and x64 x122) (or (or (and (= x143 x75) x110) (or (and (= x143 x2) x109) (and x34 (= x143 x18)))) (and x27 (= x131 x143)))) (or (and x156 x96) (or (or (and x139 (= x143 x117)) (or (and (= x89 x143) x79) (and x118 (= x147 x143)))) (and (= x93 x143) x1)))) (or (and x115 x155) (or (or (or (and x113 (= x143 x26)) (and x90 (= x143 x142))) (and (= x12 x143) x104)) (and (= x153 x143) x44))))) (or (or (and x141 (= x143 x10)) (or (and x115 (= x143 x133)) (or (and (= x143 x24) x122) (and x156 (= x143 x6))))) (and x97 x97)))))))
(check-sat)
(exit)
